(set-info :source  loris-7.ddns.comp.nus.edu.sg/~project/hip/) 
;Variables declarations
(declare-fun mx2_4088 () Int)
(declare-fun mx1_4085 () Int)
(declare-fun d_4082 () Int)
(declare-fun val_48_3962 () Int)
(declare-fun ma_3900 () Int)
(declare-fun mx_3887 () Int)
(declare-fun tmpv_3907 () Int)
(declare-fun v () Int)
(declare-fun mx2_3855 () Int)
(declare-fun mx1_3852 () Int)
(declare-fun v_primed () Int)
(declare-fun d_3849 () Int)
(declare-fun mx () Int)
;Relations declarations
;Axioms assertions
;Antecedent
(assert (exists ((ma_4101 Int)) (<= d_4082 ma_4101)))
(assert (= mx2_4088 mx2_3855))
(assert (= mx1_4085 ma_3900))
(assert (= d_4082 v_primed))
(assert (<= 0 ma_3900))
(assert (<= 0 mx2_3855))
(assert (= val_48_3962 d_3849))
(assert (<= 0 mx_3887))
(assert (or (and (<= mx_3887 tmpv_3907) (= ma_3900 tmpv_3907)) (= ma_3900 mx_3887)))
(assert (<= 0 mx1_3852))
(assert (= mx_3887 mx1_3852))
(assert (= tmpv_3907 d_3849))
(assert (= v_primed v))
(assert (<= 0 v))
(assert (<= mx2_3855 d_3849))
(assert (<= mx1_3852 d_3849))
(assert (<= 0 d_3849))
(assert (< d_3849 v_primed))
(assert (<= d_3849 mx))
;Negation of Consequence
(assert (not (<= 0 mx)))
(check-sat)